20
 0  3  5 48 48  8  8  5  5  3  3  0  3  5  8  8  5 2 3 4
 3  0  3 48 48  8  8  5  5  0  0  3  0  3  8  8  5 4 5 6
 5  3  0 72 72 48 48 24 24  3  3  5  3  0 48 48 24 4 5 6
48 48 74  0  0  6  6 12 12 48 48 48 48 74  6  6 12 6 7 7
48 48 74  0  0  6  6 12 12 48 48 48 48 74  6  6 12 1 21 2
 8  8 50  6  6  0  0  8  8  8  8  8  8 50  0  0  8 4 7 8
 8  8 50  6  6  0  0  8  8  8  8  8  8 50  0  0  8 6 7 8
 5  5 26 12 12  8  8  0  0  5  5  5  5 26  8  8  0 6 37 8
 5  5 26 12 12  8  8  0  0  5  5  5  5 26  8  8  0 5 7 3
 3  0  3 48 48  8  8  5  5  0  0  3  0  3  8  8  5 3 12 3
 3  0  3 48 48  8  8  5  5  0  0  3  0  3  8  8  5 44 4 7
 0  3  5 48 48  8  8  5  5  3  3  0  3  5  8  8  5 2 22 2
 3  0  3 48 48  8  8  5  5  0  0  3  0  3  8  8  5 22 2 1
 5  3  0 72 72 48 48 24 24  3  3  5  3  0 48 48 24 4 44 4
 8  8 50  6  6  0  0  8  8  8  8  8  8 50  0  0  8 1 11 3
 8  8 50  6  6  0  0  8  8  8  8  8  8 50  0  0  8 3 2 33
 5  5 26 12 12  8  8  0  0  5  5  5  5 26  8  8  0 3 5 6
 3  0  3 48 48  8  8  5  5  0  0  3  7  3  8  8  5 0 4 17
 8  8 50  6  6  0  0  8  8  8  8  8  8 10  20  10  8 6 0 8
 5  3  0 72 72 48 48 24 24  3  3  5  3  10 48 48 24 4 5 0
